(set-info :smt-lib-version 2.6)
(set-logic QF_SLIA)
(set-info :source |
Generated by: Dmitry Blotsky1, Federico Mora, Murphy Berzish, Yunhui Zheng, Ifaz Kabir, Vijay Ganesh, Zhengyang Lu
Generated on: 2018-01-24
Generator: StringFuzz
Application: Evaluate string solvers
Target solver: Z3str3, CVC4, Z3str2, Norn
Publications: Blotsky, D., Mora, F., Berzish, M., Zheng, Y., Kabir, I., & Ganesh, V. (2018). Stringfuzz: A fuzzer for string solvers. In CAV 2018.
Description: transformed by StringFuzz, a modular string and regex fuzzer, from an industrial benchmark
|)
(set-info :license "https://creativecommons.org/licenses/by/4.0/")
(set-info :category "random")
(set-info :status unknown)

(declare-const S String)
(assert (not (str.in_re S (re.++ (str.to_re "aRd'\n'}YK5'\r'':e^7C`H^PwORoU'\n'!PlbNt@7bfJ]rNh'\r'""=k'\x0b'}%5,~fO+['\x0c';|Z?dP=xH6Dk703t7L}z&dMJ)' 'DF~Zy`&zf]Y['\r'o|01>R;R/=1-aqCM7Z8E?@""#G4UD(@`i'\t'<N.)N0L%c(^' 'Sfb4w//B`bK6FE`2'\n'kAGk`(cX<' '_GbH6pJXS+${pLh'\r'@cCW2|qC>6LcM0yHX'\x0c'%WS&MmU8V' 'wP'\n'1/&s!Ji'\r'pY,v^!|?x'\n'j!IFf0qXN0HpkL\\OmpWs8E8'\r'%~Bz""Bh?X'\r'a\\@U1'\r'' 'x[") re.allchar))))
(assert (str.in_re S (re.++ (re.union (re.union (str.to_re "&wk5$4b") re.allchar) (str.to_re "gbP&MZ'\t'7")) re.allchar)))
(check-sat)

(exit)
